(set-logic QF_BV)
(declare-fun _substvar_1404_ () (_ BitVec 16))
(declare-fun _substvar_1420_ () (_ BitVec 16))
(declare-fun _substvar_1413_ () (_ BitVec 16))
(declare-fun _substvar_4240_ () (_ BitVec 1))
(declare-fun _substvar_3055_ () (_ BitVec 1))
(declare-fun _substvar_4274_ () (_ BitVec 1))
(declare-fun _substvar_4235_ () (_ BitVec 1))
(declare-fun _substvar_1405_ () (_ BitVec 16))
(declare-fun _substvar_1545_ () (_ BitVec 1))
(assert (let ((?v_1 (concat (_ bv1 1) (_ bv0 15)))) (let ( (?v_0 (bvnot _substvar_1420_)) (?v_4 (bvnot _substvar_1413_))) (let ( (?v_3 (bvnot (ite (= (bvand (bvand ?v_0 ?v_4) ?v_1) (_ bv0 16)) (_ bv1 1) (_ bv0 1))))) (let ((?v_9 (= (_ bv1 1) ?v_3))) (let ((?v_19 (ite ?v_9 (_ bv0 16) _substvar_1420_)) (?v_8 (bvand (bvnot (_ bv0 1)) (bvnot (_ bv0 1))))) (let ((?v_23 _substvar_1413_) (?v_18 (bvand ?v_8 (bvnot (_ bv0 1)))) (?v_27 ((_ zero_extend 12) (_ bv1 4)))) (let ((?v_13 (bvlshr ?v_1 ?v_27))) (let ((?v_14 (bvnot ?v_13))) (let ((?v_17 (bvadd ?v_14 (_ bv1 16))) (?v_12 (bvnot ?v_19)) (?v_16 (bvnot ?v_23))) (let ((?v_21 (bvand (bvnot (bvand ?v_12 ?v_14)) ?v_17))) (let ( (?v_15 (bvnot (ite (= (bvand (bvand ?v_12 ?v_16) ?v_13) (_ bv0 16)) (_ bv1 1) (_ bv0 1))))) (let ((?v_35 (ite (= (_ bv1 1) _substvar_1545_) ?v_21 ?v_19)) (?v_22 (bvand ?v_18 (bvnot (bvand ?v_15 _substvar_1545_))))) (let ((?v_39 ?v_23) (?v_34 (bvand ?v_22 (bvnot (_ bv0 1))))) (let ((?v_50 ?v_35) (?v_38 (bvand ?v_34 (bvnot (_ bv0 1))))) (let ((?v_54 ?v_39) (?v_49 (bvand ?v_38 (bvnot (_ bv0 1))))) (let ((?v_55 (= (_ bv1 1) _substvar_4274_))) (let ((?v_65 ?v_50) (?v_53 (bvand ?v_49 (bvnot (_ bv0 1))))) (let ((?v_69 (ite (= (_ bv1 1) (bvnot ?v_53)) ?v_54 (ite ?v_55 (_ bv0 16) ?v_54))) (?v_64 (bvand ?v_53 (bvnot (bvand _substvar_4274_ _substvar_3055_))))) (let ((?v_80 ?v_65) (?v_68 (bvand ?v_64 (bvnot (_ bv0 1))))) (let ((?v_84 (ite (= (_ bv1 1) (bvnot ?v_68)) ?v_69 (_ bv0 16)))) (let ((?v_95 ?v_80)) (let ((?v_99 ?v_84)) (let ((?v_110 ?v_95)) (let ((?v_114 ?v_99)) (let ((?v_125 ?v_110)) (let ((?v_129 ?v_114)) (let ((?v_140 ?v_125)) (let ((?v_144 ?v_129)) (let ((?v_155 ?v_140)) (let ((?v_159 ?v_144)) (let ((?v_170 ?v_155)) (let ((?v_174 ?v_159)) (let ((?v_185 ?v_170)) (let ((?v_189 ?v_174)) (let ((?v_200 ?v_185)) (let ((?v_204 ?v_189)) (let ((?v_215 ?v_200)) (let ((?v_220 ?v_204)) (let ((?v_218 ?v_215)) (let ((?v_231 ?v_220)) (not (= (bvand (bvand (bvand (bvand (bvnot (ite (bvult _substvar_1405_ _substvar_1420_) (_ bv1 1) (_ bv0 1))) _substvar_4240_) (bvnot (ite (bvult _substvar_1404_ _substvar_1413_) (_ bv1 1) (_ bv0 1)))) _substvar_4235_) (ite (bvult (bvand _substvar_1405_ _substvar_1404_) (bvand ?v_218 ?v_231)) (_ bv1 1) (_ bv0 1))) (_ bv0 1))))))))))))))))))))))))))))))))))))))))))))
(check-sat)
(exit)
